letting n_nurses=25
letting n_days=7
letting n_shift_types=4
letting max_covers=11
letting t_covers=87
letting covers=[8,3,7,0,11,6,4,0,10,5,4,0,7,9,4,0,2,2,1,0,1,1,0,0,1,1,0,0]
letting prefes=[1,1,2,2,4,1,4,4,1,1,2,2,1,1,2,2,1,1,2,2,1,1,2,2,4,1,4,4,2,2,1,1,1,4,4,4,2,2,1,1,2,2,1,1,2,2,1,1,2,2,1,1,1,4,4,4,2,2,2,2,4,4,1,4,2,2,2,2,2,2,2,2,2,2,2,2,2,2,2,2,4,4,1,4,2,2,1,1,4,4,1,4,2,2,1,1,2,2,1,1,2,2,1,1,2,2,1,1,4,4,1,4,2,2,2,2,1,4,4,4,2,2,2,2,2,2,2,2,2,2,2,2,2,2,2,2,1,4,4,4,2,2,1,1,4,4,4,4,2,2,1,1,2,2,1,1,2,2,1,1,2,2,1,1,4,4,4,4,2,2,2,2,4,4,1,2,2,2,2,2,2,2,2,2,2,2,2,2,2,2,2,2,4,4,1,2,1,2,1,1,4,4,4,4,1,2,1,1,1,2,1,1,1,2,1,1,1,2,1,1,4,4,4,4,1,1,1,1,1,4,4,4,1,1,1,1,1,1,1,1,1,1,1,1,1,1,1,1,1,4,4,4,2,2,1,1,4,1,1,4,2,2,1,1,2,2,1,1,2,2,1,1,2,2,1,1,4,1,1,4,2,1,1,1,4,4,4,2,2,1,1,1,2,1,1,1,2,1,1,1,2,1,1,1,4,4,4,2,2,2,1,1,1,4,4,4,2,2,1,1,2,2,1,1,2,2,1,1,2,2,1,1,1,4,4,4,2,2,1,1,4,4,1,4,2,2,1,1,2,2,1,1,2,2,1,1,2,2,1,1,4,4,1,4,2,2,1,1,1,4,4,4,2,2,1,1,2,2,1,1,2,2,1,1,2,2,1,1,1,4,4,4,2,1,1,1,4,4,4,4,2,1,1,1,2,1,1,1,2,1,1,1,2,1,1,1,4,4,4,4,2,2,1,1,4,1,4,4,2,2,1,1,2,2,1,1,2,2,1,1,2,2,1,1,4,1,4,4,2,2,1,1,4,4,4,2,2,2,1,1,2,2,1,1,2,2,1,1,2,2,1,1,4,4,4,2,2,2,1,1,4,4,4,4,2,2,1,1,2,2,1,1,2,2,1,1,2,2,1,1,4,4,4,4,2,2,1,1,4,1,4,4,2,2,1,1,2,2,1,1,2,2,1,1,2,2,1,1,4,1,4,4,1,1,1,1,4,4,4,4,1,1,1,1,1,1,1,1,1,1,1,1,1,1,1,1,4,4,4,4,2,2,1,1,4,4,4,2,2,2,1,1,2,2,1,1,2,2,1,1,2,2,1,1,4,4,4,2,2,2,1,1,4,1,4,4,2,2,1,1,2,2,1,1,2,2,1,1,2,2,1,1,4,1,4,4,1,2,1,1,4,4,4,4,1,2,1,1,1,2,1,1,1,2,1,1,1,2,1,1,4,4,4,4,2,2,1,1,4,4,4,2,2,2,1,1,2,2,1,1,2,2,1,1,2,2,1,1,4,4,4,2,2,2,2,2,4,4,4,4,2,2,2,2,2,2,2,2,2,2,2,2,2,2,2,2,4,4,4,4]
letting ub =  258
